c Qdimacs file from skolem function generator
p cnf 284 681
c a 182 183 184 185 186 187 188 189 190 191 192 193 194 195 196 197 198 199 200 201 202 203 204 205 206 207 208 209 210 211 212 213 214 215 216 217 218 219 220 221 222 223 224 225 226 227 228 229 230 231 232 233 234 235 236 237 238 239 240 241 242 243 244 245 246 247 248 249 250 251 252 253 254 255 256 257 258 259 260 261 262 263 264 265 266 267 268 269 270 271 272 273 274 275 276 277 278 279 280 281 282 283 0
c e 133 134 135 136 137 138 139 140 141 142 143 144 145 146 147 148 149 150 151 152 153 154 155 156 157 158 159 160 161 162 163 164 165 166 167 168 169 170 171 172 173 174 175 176 177 178 179 180 181 1 2 3 4 5 6 7 8 9 10 11 12 13 14 15 16 17 18 19 20 21 22 23 24 25 26 27 28 29 30 31 32 33 34 35 36 37 38 39 40 41 42 43 44 45 46 47 48 49 50 51 52 53 54 55 56 57 58 59 60 61 62 63 64 65 66 67 68 69 70 71 72 73 74 75 76 77 78 79 80 81 82 83 84 85 86 87 88 89 90 91 92 93 94 95 96 97 98 99 100 101 102 103 104 105 106 107 108 109 110 111 112 113 114 115 116 117 118 119 120 121 122 123 124 125 126 127 128 129 130 131 132 284 0
4 231 -5 -102 -122 0
4 -231 5 -102 -122 0
-4 122 0
-4 231 5 0
-4 102 0
-4 -231 -5 0
5 9 100 0
5 224 6 100 0
-5 -100 0
-5 -6 -9 0
-5 -224 -9 0
6 -170 -7 0
6 170 218 7 0
6 -170 -219 0
6 170 219 7 0
-6 170 -7 0
-6 -170 219 7 0
-6 170 -218 -219 0
7 221 -8 0
-7 -221 0
-7 8 0
8 187 -188 -189 0
8 187 188 190 0
8 187 188 189 0
-8 -187 0
-8 -188 189 0
-8 188 -189 -190 0
9 -10 -68 -83 -86 0
-9 86 0
-9 10 0
-9 83 0
-9 68 0
10 7 -11 -29 0
10 -7 -18 -29 0
-10 29 0
-10 -7 18 0
-10 7 11 0
11 177 -12 -16 0
11 -12 15 -16 0
-11 16 0
-11 12 0
-11 -177 -15 0
12 158 207 -13 -14 0
12 -158 -207 -13 -14 0
-12 14 0
-12 -158 207 0
-12 13 0
-12 158 -207 0
13 -179 -228 0
13 179 228 0
-13 179 -228 0
-13 -179 228 0
14 -134 137 -183 186 0
14 134 -137 183 -186 0
14 134 137 183 186 0
14 -134 -137 -183 -186 0
-14 -134 183 0
-14 134 -183 0
-14 137 -186 0
-14 -137 186 0
15 200 226 0
15 -201 226 0
15 184 226 0
-15 -226 0
-15 -184 -200 201 0
16 135 184 -17 0
16 -135 -184 -17 0
16 184 202 -17 0
-16 17 0
-16 135 -184 0
-16 -135 184 -202 0
17 -157 -206 0
17 157 206 0
-17 157 -206 0
-17 -157 206 0
18 134 19 20 -26 0
18 -134 -19 20 -26 0
-18 -20 0
-18 134 -19 0
-18 26 0
-18 -134 19 0
19 -188 -189 0
19 -189 190 0
-19 189 0
-19 188 -190 0
20 -179 196 0
20 -196 -25 0
20 179 -196 0
20 196 -21 0
-20 -179 -196 25 0
-20 179 196 21 0
21 162 -210 -22 0
21 -162 210 -22 0
-21 22 0
-21 162 210 0
-21 -162 -210 0
22 -23 -24 0
-22 23 0
-22 24 0
23 187 220 0
-23 -187 0
-23 -220 0
24 191 192 -193 0
-24 193 0
-24 -192 0
-24 -191 0
25 162 -209 220 0
25 -162 209 220 0
-25 -220 0
-25 162 209 0
-25 -162 -209 0
26 181 199 27 -28 0
26 -181 -199 27 -28 0
-26 -27 0
-26 181 -199 0
-26 28 0
-26 -181 199 0
27 -135 -202 0
-27 135 0
-27 202 0
28 177 180 220 0
-28 -177 0
-28 -220 0
-28 -180 0
29 168 30 -33 -66 0
29 -168 -30 -33 -66 0
-29 66 0
-29 -168 30 0
-29 33 0
-29 168 -30 0
30 -217 31 0
30 -199 -31 0
-30 217 31 0
-30 199 -31 0
31 -194 -23 0
31 -23 -24 -32 0
-31 23 0
-31 194 24 0
-31 194 32 0
32 195 -196 0
32 -195 196 0
-32 -195 -196 0
-32 195 196 0
33 34 43 -48 -59 0
-33 -34 0
-33 59 0
-33 48 0
-33 -43 0
34 224 35 42 0
34 187 224 35 0
-34 -35 0
-34 -224 0
-34 -187 -42 0
35 187 36 41 0
35 187 22 36 0
-35 -187 0
-35 -36 0
-35 -22 -41 0
36 -220 -37 39 0
36 37 -38 39 0
-36 -39 0
-36 220 -37 0
-36 37 38 0
37 -188 189 -190 0
-37 188 0
-37 -189 0
-37 190 0
38 174 -209 220 0
38 -174 209 220 0
-38 -220 0
-38 174 209 0
-38 -174 -209 0
39 -196 -40 0
-39 196 0
-39 40 0
40 188 189 -190 0
-40 190 0
-40 -189 0
-40 -188 0
41 174 -196 -210 -40 0
41 -174 -196 210 -40 0
-41 40 0
-41 -174 -210 0
-41 196 0
-41 174 210 0
42 -174 -223 0
42 174 223 0
-42 174 -223 0
-42 -174 223 0
43 -194 -47 0
43 -44 -47 0
43 -45 -47 0
-43 47 0
-43 194 44 45 0
44 173 -195 -210 -24 0
44 -173 -195 210 -24 0
-44 24 0
-44 -173 -210 0
-44 195 0
-44 173 210 0
45 173 -209 46 0
45 -173 209 46 0
-45 -46 0
-45 173 209 0
-45 -173 -209 0
46 -191 192 -193 0
46 192 -193 -195 0
-46 193 0
-46 -192 0
-46 191 195 0
47 194 -23 0
47 -173 208 -23 0
47 173 -208 -23 0
-47 23 0
-47 173 -194 208 0
-47 -173 -194 -208 0
48 224 -49 -56 0
48 -49 -55 -56 0
-48 56 0
-48 49 0
-48 -224 55 0
49 176 -50 54 0
49 -176 -50 -54 0
-49 50 0
-49 -176 54 0
-49 176 -54 0
50 -23 52 -53 0
50 -51 52 -53 0
-50 53 0
-50 -52 0
-50 23 51 0
51 -173 -222 0
51 173 222 0
-51 173 -222 0
-51 -173 222 0
52 -187 188 -189 -190 0
-52 190 0
-52 187 0
-52 189 0
-52 -188 0
53 166 -231 -232 0
53 -224 -231 -232 0
-53 232 0
-53 231 0
-53 -166 224 0
54 -218 -224 0
54 224 -225 0
-54 218 -224 0
-54 224 225 0
55 219 -220 0
55 -220 -229 0
55 218 -220 0
-55 220 0
-55 -218 -219 229 0
56 165 214 -57 -58 0
56 -165 -214 -57 -58 0
-56 58 0
-56 -165 214 0
-56 57 0
-56 165 -214 0
57 -133 -212 0
57 163 182 0
57 182 -212 0
57 -133 163 0
-57 -163 212 0
-57 133 -182 0
58 -163 -182 0
58 133 212 0
58 133 -163 0
58 -182 212 0
-58 -133 182 0
-58 163 -212 0
59 23 -61 -64 0
59 -60 -61 -64 0
-59 64 0
-59 61 0
-59 -23 60 0
60 -191 192 194 0
60 191 -192 -193 194 0
-60 -192 193 0
-60 191 192 0
-60 -194 0
-60 -191 -192 0
61 159 208 62 -63 0
61 -159 -208 62 -63 0
-61 -62 0
-61 159 -208 0
-61 63 0
-61 -159 208 0
62 164 -213 0
62 -164 213 0
-62 -164 -213 0
-62 164 213 0
63 -148 149 -197 198 0
63 148 -149 197 -198 0
63 148 149 197 198 0
63 -148 -149 -197 -198 0
-63 -148 197 0
-63 148 -197 0
-63 149 -198 0
-63 -149 198 0
64 -220 65 0
64 222 223 65 0
64 -222 -223 65 0
-64 -65 0
-64 220 222 -223 0
-64 220 -222 223 0
65 166 -224 0
65 -169 -224 0
65 -170 -224 0
-65 224 0
-65 -166 169 170 0
66 7 -67 0
66 -178 -40 -7 0
66 178 40 -7 0
-66 7 67 0
-66 178 -40 -7 0
-66 -178 40 -7 0
67 -178 -227 0
67 178 227 0
-67 178 -227 0
-67 -178 227 0
68 -7 69 82 0
68 7 -71 82 0
-68 -82 0
-68 7 71 0
-68 -7 -69 0
69 137 -70 0
69 -137 70 0
-69 -137 -70 0
-69 137 70 0
70 188 -189 190 0
-70 -188 0
-70 189 0
-70 -190 0
71 -73 -75 0
71 -155 72 -75 0
-71 75 0
-71 -72 73 0
-71 155 73 0
72 200 204 0
72 201 204 -207 0
72 -201 204 207 0
-72 -204 0
-72 -200 -201 -207 0
-72 -200 201 207 0
73 200 -74 0
73 -201 -74 0
73 -207 -74 0
-73 74 0
-73 -200 201 207 0
74 155 204 0
-74 -155 0
-74 -204 0
75 -177 76 -79 0
75 -15 76 -79 0
-75 79 0
-75 -76 0
-75 177 15 0
76 154 -78 0
76 -154 -77 0
76 154 -203 0
-76 -154 77 0
-76 154 203 78 0
77 200 203 0
77 201 203 -206 0
77 -201 203 206 0
-77 -203 0
-77 -200 -201 -206 0
-77 -200 201 206 0
78 -200 201 206 0
-78 200 0
-78 -206 0
-78 -201 0
79 162 211 -80 81 0
79 -162 -211 -80 81 0
-79 -81 0
-79 -162 211 0
-79 80 0
-79 162 -211 0
80 -180 181 -229 230 0
80 180 -181 229 -230 0
80 180 181 229 230 0
80 -180 -181 -229 -230 0
-80 -180 229 0
-80 180 -229 0
-80 181 -230 0
-80 -181 230 0
81 136 -185 0
81 -136 185 0
-81 -136 -185 0
-81 136 185 0
82 -172 -224 0
82 -172 221 8 0
82 172 -221 224 8 0
-82 172 -224 0
-82 -172 -221 224 0
-82 224 -8 0
-82 172 221 0
83 -167 171 84 -85 0
83 -167 -171 -84 -85 0
83 167 171 84 85 0
83 167 -171 -84 85 0
-83 167 -85 0
-83 -167 85 0
-83 -171 84 0
-83 171 -84 0
84 -220 224 0
84 224 -31 0
-84 -224 0
-84 220 31 0
85 -221 -31 0
85 -216 31 0
-85 216 31 0
-85 221 -31 0
86 7 87 0
86 136 194 87 0
86 -136 -194 87 0
-86 -87 0
-86 136 -194 -7 0
-86 -136 194 -7 0
87 220 93 0
87 220 88 0
-87 -220 0
-87 -88 -93 0
88 89 90 91 -92 0
88 89 -90 -91 -92 0
88 -89 -90 -91 92 0
88 -89 90 91 92 0
-88 -89 -92 0
-88 89 92 0
-88 -90 91 0
-88 90 -91 0
89 190 0
89 -188 -189 0
-89 189 -190 0
-89 188 -190 0
90 188 189 190 0
-90 -188 0
-90 -190 0
-90 -189 0
91 191 192 193 0
-91 -191 0
-91 -193 0
-91 -192 0
92 192 -193 0
92 191 -193 0
-92 193 0
-92 -191 -192 0
93 94 95 -96 -98 0
93 -94 -95 -96 -98 0
93 94 95 96 98 0
93 -94 -95 96 98 0
-93 94 -95 0
-93 -94 95 0
-93 96 -98 0
-93 -96 98 0
94 189 190 0
94 188 -189 -190 0
-94 -189 190 0
-94 -188 -190 0
-94 189 -190 0
95 192 193 0
95 191 -192 -193 0
-95 -192 193 0
-95 -191 -193 0
-95 192 -193 0
96 -191 -97 0
96 191 97 0
-96 191 -97 0
-96 -191 97 0
97 192 193 0
-97 -192 0
-97 -193 0
98 -188 -99 0
98 188 99 0
-98 188 -99 0
-98 -188 99 0
99 189 190 0
-99 -189 0
-99 -190 0
100 171 172 232 -101 0
-100 101 0
-100 -232 0
-100 -171 0
-100 -172 0
101 169 170 173 174 0
101 169 170 -173 -174 0
-101 -170 0
-101 173 -174 0
-101 -169 0
-101 -173 174 0
102 -61 -103 -104 -105 0
-102 105 0
-102 61 0
-102 104 0
-102 103 0
103 -140 168 -189 0
103 140 168 189 0
103 140 189 -217 0
103 -140 -189 -217 0
-103 -140 189 0
-103 140 -189 0
-103 -168 217 0
104 -167 169 -216 218 0
104 167 -169 216 -218 0
104 167 169 216 218 0
104 -167 -169 -216 -218 0
-104 -167 216 0
-104 167 -216 0
-104 169 -218 0
-104 -169 218 0
105 -106 -115 -116 -117 0
-105 117 0
-105 106 0
-105 116 0
-105 115 0
106 -107 -110 -111 -112 0
-106 112 0
-106 107 0
-106 111 0
-106 110 0
107 145 194 108 109 0
107 -145 -194 108 109 0
-107 -108 0
-107 -145 194 0
-107 -109 0
-107 145 -194 0
108 160 -209 0
-108 -160 0
-108 209 0
109 138 -187 0
-109 -138 0
-109 187 0
110 -153 196 0
110 -147 202 0
110 -147 -153 0
110 196 202 0
-110 153 -202 0
-110 147 -196 0
111 160 161 0
111 -209 -210 0
111 160 -210 0
111 161 -209 0
-111 -160 209 0
-111 -161 210 0
112 144 193 -113 -114 0
112 -144 -193 -113 -114 0
-112 114 0
-112 -144 193 0
-112 113 0
-112 144 -193 0
113 -168 -187 0
113 138 217 0
113 138 -168 0
113 -187 217 0
-113 -138 187 0
-113 168 -217 0
114 -143 156 -192 205 0
114 143 -156 192 -205 0
114 143 156 192 205 0
114 -143 -156 -192 -205 0
-114 -143 192 0
-114 143 -192 0
-114 156 -205 0
-114 -156 205 0
115 -139 175 -188 224 0
115 139 -175 188 -224 0
115 139 175 188 224 0
115 -139 -175 -188 -224 0
-115 -139 188 0
-115 139 -188 0
-115 175 -224 0
-115 -175 224 0
116 -141 150 -190 199 0
116 141 -150 190 -199 0
116 141 150 190 199 0
116 -141 -150 -190 -199 0
-116 -141 190 0
-116 141 -190 0
-116 150 -199 0
-116 -150 199 0
117 166 215 -118 -121 0
117 -166 -215 -118 -121 0
-117 121 0
-117 -166 215 0
-117 118 0
-117 166 -215 0
118 210 119 -120 0
118 -161 119 -120 0
-118 120 0
-118 -119 0
-118 161 -210 0
119 177 -226 0
-119 -177 0
-119 226 0
120 147 153 0
120 -196 -202 0
120 147 -202 0
120 153 -196 0
-120 -147 196 0
-120 -153 202 0
121 -170 -226 0
121 177 219 0
121 219 -226 0
121 -170 177 0
-121 -177 226 0
-121 170 -219 0
122 -12 -56 -79 -123 0
-122 123 0
-122 12 0
-122 79 0
-122 56 0
123 -124 -129 -131 -132 0
-123 132 0
-123 124 0
-123 131 0
-123 129 0
124 -17 -67 -125 -126 0
-124 126 0
-124 17 0
-124 125 0
-124 67 0
125 -152 172 -201 221 0
125 152 -172 201 -221 0
125 152 172 201 221 0
125 -152 -172 -201 -221 0
-125 -152 201 0
-125 152 -201 0
-125 172 -221 0
-125 -172 221 0
126 173 222 -42 -127 0
126 -173 -222 -42 -127 0
-126 127 0
-126 -173 222 0
-126 42 0
-126 173 -222 0
127 135 184 -232 128 0
127 -135 -184 -232 128 0
-127 -128 0
-127 -135 184 0
-127 232 0
-127 135 -184 0
128 -170 219 0
-128 170 0
-128 -219 0
129 -154 -203 -130 0
129 154 203 -130 0
-129 130 0
-129 -154 203 0
-129 154 -203 0
130 -142 171 -191 220 0
130 142 -171 191 -220 0
130 142 171 191 220 0
130 -142 -171 -191 -220 0
-130 -142 191 0
-130 142 -191 0
-130 171 -220 0
-130 -171 220 0
131 -146 151 -195 200 0
131 146 -151 195 -200 0
131 146 151 195 200 0
131 -146 -151 -195 -200 0
-131 -146 195 0
-131 146 -195 0
-131 151 -200 0
-131 -151 200 0
132 -155 176 -204 225 0
132 155 -176 204 -225 0
132 155 176 204 225 0
132 -155 -176 -204 -225 0
-132 -155 204 0
-132 155 -204 0
-132 176 -225 0
-132 -176 225 0
284 0
2 4 0
-2 -4 0
3 4 0
-3 -4 0
3 0

